Instance0
Gap











24.66%
24.10%
13.68%
13.14%
11.52%
9.38%
9.38%
9.38%
8.28%
6.97%
6.77%
5.87%
5.21%
4.66%
4.44%
4.39%
4.37%
4.34%
4.23%
4.20%
4.19%
4.18%
1.97%
CPXPARAM_MIP_Cuts_LiftProj-Covers-FlowCovers:LiftProj 0
CPXPARAM_MIP_Cuts_LiftProj-Covers-FlowCovers:Covers 0
CPXPARAM_MIP_Cuts_LiftProj-Covers-FlowCovers:FlowCovers 17
Instance1
Gap



77.40%
77.40%
CPXPARAM_MIP_Cuts_LiftProj-Covers-FlowCovers:LiftProj 2
CPXPARAM_MIP_Cuts_LiftProj-Covers-FlowCovers:Covers 0
CPXPARAM_MIP_Cuts_LiftProj-Covers-FlowCovers:FlowCovers 0
Instance2
Gap


0.35%
0.35%
0.35%
0
CPXPARAM_MIP_Cuts_LiftProj-Covers-FlowCovers:LiftProj 0
CPXPARAM_MIP_Cuts_LiftProj-Covers-FlowCovers:Covers 0
CPXPARAM_MIP_Cuts_LiftProj-Covers-FlowCovers:FlowCovers 0
Instance3
Gap

0.00%
0
CPXPARAM_MIP_Cuts_LiftProj-Covers-FlowCovers:LiftProj 0
CPXPARAM_MIP_Cuts_LiftProj-Covers-FlowCovers:Covers 0
CPXPARAM_MIP_Cuts_LiftProj-Covers-FlowCovers:FlowCovers 0
Instance4
Gap

0
CPXPARAM_MIP_Cuts_LiftProj-Covers-FlowCovers:LiftProj 0
CPXPARAM_MIP_Cuts_LiftProj-Covers-FlowCovers:Covers 0
CPXPARAM_MIP_Cuts_LiftProj-Covers-FlowCovers:FlowCovers 0
Instance5
Gap



0
CPXPARAM_MIP_Cuts_LiftProj-Covers-FlowCovers:LiftProj 0
CPXPARAM_MIP_Cuts_LiftProj-Covers-FlowCovers:Covers 0
CPXPARAM_MIP_Cuts_LiftProj-Covers-FlowCovers:FlowCovers 3
Instance6
Gap
111.50%
92.96%
0.13%
0.13%
0.13%
0.13%
CPXPARAM_MIP_Cuts_LiftProj-Covers-FlowCovers:LiftProj 0
CPXPARAM_MIP_Cuts_LiftProj-Covers-FlowCovers:Covers 0
CPXPARAM_MIP_Cuts_LiftProj-Covers-FlowCovers:FlowCovers 0
Instance7
Gap

23.59%
23.59%
23.59%
CPXPARAM_MIP_Cuts_LiftProj-Covers-FlowCovers:LiftProj 0
CPXPARAM_MIP_Cuts_LiftProj-Covers-FlowCovers:Covers 0
CPXPARAM_MIP_Cuts_LiftProj-Covers-FlowCovers:FlowCovers 1
Instance8
Gap










2.94%
2.94%
2.94%
2.87%
2.72%
2.70%
2.69%
2.67%
2.66%
2.59%
2.52%
2.49%
2.25%
2.14%
1.86%
1.86%
1.63%
CPXPARAM_MIP_Cuts_LiftProj-Covers-FlowCovers:LiftProj 0
CPXPARAM_MIP_Cuts_LiftProj-Covers-FlowCovers:Covers 0
CPXPARAM_MIP_Cuts_LiftProj-Covers-FlowCovers:FlowCovers 10
Instance9
Gap















0
CPXPARAM_MIP_Cuts_LiftProj-Covers-FlowCovers:LiftProj 1
CPXPARAM_MIP_Cuts_LiftProj-Covers-FlowCovers:Covers 0
CPXPARAM_MIP_Cuts_LiftProj-Covers-FlowCovers:FlowCovers 10
Instance10
Gap



0.01%
CPXPARAM_MIP_Cuts_LiftProj-Covers-FlowCovers:LiftProj 0
CPXPARAM_MIP_Cuts_LiftProj-Covers-FlowCovers:Covers 0
CPXPARAM_MIP_Cuts_LiftProj-Covers-FlowCovers:FlowCovers 2
Instance11
Gap

0.02%
0
CPXPARAM_MIP_Cuts_LiftProj-Covers-FlowCovers:LiftProj 0
CPXPARAM_MIP_Cuts_LiftProj-Covers-FlowCovers:Covers 0
CPXPARAM_MIP_Cuts_LiftProj-Covers-FlowCovers:FlowCovers 0
Instance12
Gap






22.55%
21.15%
20.98%
20.34%
20.06%
19.94%
19.86%
19.64%
19.56%
19.50%
19.17%
19.10%
18.15%
17.61%
16.89%
16.82%
16.79%
16.71%
9.16%
9.16%
9.16%
8.96%
8.93%
8.62%
8.54%
8.41%
8.20%
8.17%
8.14%
8.10%
8.06%
7.72%
7.69%
7.62%
7.62%
7.49%
7.46%
7.43%
7.37%
7.36%
7.35%
7.24%
CPXPARAM_MIP_Cuts_LiftProj-Covers-FlowCovers:LiftProj 0
CPXPARAM_MIP_Cuts_LiftProj-Covers-FlowCovers:Covers 0
CPXPARAM_MIP_Cuts_LiftProj-Covers-FlowCovers:FlowCovers 17
Instance13
Gap

37.35%
37.35%
37.35%
37.35%
CPXPARAM_MIP_Cuts_LiftProj-Covers-FlowCovers:LiftProj 0
CPXPARAM_MIP_Cuts_LiftProj-Covers-FlowCovers:Covers 1
CPXPARAM_MIP_Cuts_LiftProj-Covers-FlowCovers:FlowCovers 1
Instance14
Gap

1.86%
1.86%
1.86%
1.86%
CPXPARAM_MIP_Cuts_LiftProj-Covers-FlowCovers:LiftProj 0
CPXPARAM_MIP_Cuts_LiftProj-Covers-FlowCovers:Covers 0
CPXPARAM_MIP_Cuts_LiftProj-Covers-FlowCovers:FlowCovers 0
Instance15
Gap
112.51%
98.57%
3.14%
3.14%
3.14%
3.14%
CPXPARAM_MIP_Cuts_LiftProj-Covers-FlowCovers:LiftProj 0
CPXPARAM_MIP_Cuts_LiftProj-Covers-FlowCovers:Covers 0
CPXPARAM_MIP_Cuts_LiftProj-Covers-FlowCovers:FlowCovers 0
Instance16
Gap



4.87%
4.87%
4.87%
4.59%
0
CPXPARAM_MIP_Cuts_LiftProj-Covers-FlowCovers:LiftProj 1
CPXPARAM_MIP_Cuts_LiftProj-Covers-FlowCovers:Covers 0
CPXPARAM_MIP_Cuts_LiftProj-Covers-FlowCovers:FlowCovers 2
Instance17
Gap



0
CPXPARAM_MIP_Cuts_LiftProj-Covers-FlowCovers:LiftProj 1
CPXPARAM_MIP_Cuts_LiftProj-Covers-FlowCovers:Covers 0
CPXPARAM_MIP_Cuts_LiftProj-Covers-FlowCovers:FlowCovers 2
Instance18
Gap
110.91%
93.14%
93.14%
12.16%
12.16%
CPXPARAM_MIP_Cuts_LiftProj-Covers-FlowCovers:LiftProj 0
CPXPARAM_MIP_Cuts_LiftProj-Covers-FlowCovers:Covers 0
CPXPARAM_MIP_Cuts_LiftProj-Covers-FlowCovers:FlowCovers 1
Instance19
Gap
114.31%
97.72%
0.46%
0.46%
0.46%
0.46%
CPXPARAM_MIP_Cuts_LiftProj-Covers-FlowCovers:LiftProj 0
CPXPARAM_MIP_Cuts_LiftProj-Covers-FlowCovers:Covers 0
CPXPARAM_MIP_Cuts_LiftProj-Covers-FlowCovers:FlowCovers 0
Instance20
Gap



0
CPXPARAM_MIP_Cuts_LiftProj-Covers-FlowCovers:LiftProj 2
CPXPARAM_MIP_Cuts_LiftProj-Covers-FlowCovers:Covers 0
CPXPARAM_MIP_Cuts_LiftProj-Covers-FlowCovers:FlowCovers 0
Instance21
Gap



0
CPXPARAM_MIP_Cuts_LiftProj-Covers-FlowCovers:LiftProj 1
CPXPARAM_MIP_Cuts_LiftProj-Covers-FlowCovers:Covers 0
CPXPARAM_MIP_Cuts_LiftProj-Covers-FlowCovers:FlowCovers 2
Instance22
Gap

0.39%
0.39%
0.39%
0.39%
0.39%
CPXPARAM_MIP_Cuts_LiftProj-Covers-FlowCovers:LiftProj 0
CPXPARAM_MIP_Cuts_LiftProj-Covers-FlowCovers:Covers 0
CPXPARAM_MIP_Cuts_LiftProj-Covers-FlowCovers:FlowCovers 1
Instance23
Gap


3.15%
3.15%
3.15%
3.10%
0
CPXPARAM_MIP_Cuts_LiftProj-Covers-FlowCovers:LiftProj 0
CPXPARAM_MIP_Cuts_LiftProj-Covers-FlowCovers:Covers 0
CPXPARAM_MIP_Cuts_LiftProj-Covers-FlowCovers:FlowCovers 1
Instance24
Gap

10.00%
10.00%
10.00%
10.00%
CPXPARAM_MIP_Cuts_LiftProj-Covers-FlowCovers:LiftProj 0
CPXPARAM_MIP_Cuts_LiftProj-Covers-FlowCovers:Covers 0
CPXPARAM_MIP_Cuts_LiftProj-Covers-FlowCovers:FlowCovers 0
Instance25
Gap



0
48.59%
CPXPARAM_MIP_Cuts_LiftProj-Covers-FlowCovers:LiftProj 2
CPXPARAM_MIP_Cuts_LiftProj-Covers-FlowCovers:Covers 0
CPXPARAM_MIP_Cuts_LiftProj-Covers-FlowCovers:FlowCovers 0
Instance26
Gap
0.00%
CPXPARAM_MIP_Cuts_LiftProj-Covers-FlowCovers:LiftProj 0
CPXPARAM_MIP_Cuts_LiftProj-Covers-FlowCovers:Covers 0
CPXPARAM_MIP_Cuts_LiftProj-Covers-FlowCovers:FlowCovers 0
Instance27
Gap

0.42%
0.42%
0.42%
0.42%
CPXPARAM_MIP_Cuts_LiftProj-Covers-FlowCovers:LiftProj 0
CPXPARAM_MIP_Cuts_LiftProj-Covers-FlowCovers:Covers 0
CPXPARAM_MIP_Cuts_LiftProj-Covers-FlowCovers:FlowCovers 0
Instance28
Gap



0
CPXPARAM_MIP_Cuts_LiftProj-Covers-FlowCovers:LiftProj 1
CPXPARAM_MIP_Cuts_LiftProj-Covers-FlowCovers:Covers 0
CPXPARAM_MIP_Cuts_LiftProj-Covers-FlowCovers:FlowCovers 2
Instance29
Gap
111.49%
406.57%
82.87%
82.87%
82.87%
82.87%
CPXPARAM_MIP_Cuts_LiftProj-Covers-FlowCovers:LiftProj 0
CPXPARAM_MIP_Cuts_LiftProj-Covers-FlowCovers:Covers 0
CPXPARAM_MIP_Cuts_LiftProj-Covers-FlowCovers:FlowCovers 3
Instance30
Gap
120.75%
227.70%
17.33%
17.33%
0.85%
0.85%
0.85%
0.85%
CPXPARAM_MIP_Cuts_LiftProj-Covers-FlowCovers:LiftProj 0
CPXPARAM_MIP_Cuts_LiftProj-Covers-FlowCovers:Covers 0
CPXPARAM_MIP_Cuts_LiftProj-Covers-FlowCovers:FlowCovers 1
Instance31
Gap

5.20%
5.20%
5.20%
5.20%
CPXPARAM_MIP_Cuts_LiftProj-Covers-FlowCovers:LiftProj 0
CPXPARAM_MIP_Cuts_LiftProj-Covers-FlowCovers:Covers 0
CPXPARAM_MIP_Cuts_LiftProj-Covers-FlowCovers:FlowCovers 0
Instance32
Gap



0
CPXPARAM_MIP_Cuts_LiftProj-Covers-FlowCovers:LiftProj 1
CPXPARAM_MIP_Cuts_LiftProj-Covers-FlowCovers:Covers 0
CPXPARAM_MIP_Cuts_LiftProj-Covers-FlowCovers:FlowCovers 1
Instance33
Gap



0
CPXPARAM_MIP_Cuts_LiftProj-Covers-FlowCovers:LiftProj 0
CPXPARAM_MIP_Cuts_LiftProj-Covers-FlowCovers:Covers 0
CPXPARAM_MIP_Cuts_LiftProj-Covers-FlowCovers:FlowCovers 3
Instance34
Gap



0.14%
0.14%
0.13%
0
CPXPARAM_MIP_Cuts_LiftProj-Covers-FlowCovers:LiftProj 0
CPXPARAM_MIP_Cuts_LiftProj-Covers-FlowCovers:Covers 0
CPXPARAM_MIP_Cuts_LiftProj-Covers-FlowCovers:FlowCovers 2
Instance35
Gap


2.41%
2.41%
2.41%
0
CPXPARAM_MIP_Cuts_LiftProj-Covers-FlowCovers:LiftProj 0
CPXPARAM_MIP_Cuts_LiftProj-Covers-FlowCovers:Covers 0
CPXPARAM_MIP_Cuts_LiftProj-Covers-FlowCovers:FlowCovers 1
Instance36
Gap


8.38%
8.38%
8.38%
8.38%
8.02%
CPXPARAM_MIP_Cuts_LiftProj-Covers-FlowCovers:LiftProj 0
CPXPARAM_MIP_Cuts_LiftProj-Covers-FlowCovers:Covers 0
CPXPARAM_MIP_Cuts_LiftProj-Covers-FlowCovers:FlowCovers 2
Instance37
Gap



161.00%
161.00%
CPXPARAM_MIP_Cuts_LiftProj-Covers-FlowCovers:LiftProj 0
CPXPARAM_MIP_Cuts_LiftProj-Covers-FlowCovers:Covers 0
CPXPARAM_MIP_Cuts_LiftProj-Covers-FlowCovers:FlowCovers 2
Instance38
Gap

0.21%
0.21%
0.21%
0.21%
CPXPARAM_MIP_Cuts_LiftProj-Covers-FlowCovers:LiftProj 0
CPXPARAM_MIP_Cuts_LiftProj-Covers-FlowCovers:Covers 0
CPXPARAM_MIP_Cuts_LiftProj-Covers-FlowCovers:FlowCovers 0
Instance39
Gap

0.50%
0.50%
0.50%
0
CPXPARAM_MIP_Cuts_LiftProj-Covers-FlowCovers:LiftProj 0
CPXPARAM_MIP_Cuts_LiftProj-Covers-FlowCovers:Covers 0
CPXPARAM_MIP_Cuts_LiftProj-Covers-FlowCovers:FlowCovers 0
